c CNF file corresponding to a (partial) station packing problem.
p cnf 2387 229
1 2 3 4 5 6 7 8 9 10 11 12 13 14 0
-1 -2 0
-1 -3 0
-1 -4 0
-1 -5 0
-1 -6 0
-1 -7 0
-1 -8 0
-1 -9 0
-1 -10 0
-1 -11 0
-1 -12 0
-1 -13 0
-1 -14 0
-2 -3 0
-2 -4 0
-2 -5 0
-2 -6 0
-2 -7 0
-2 -8 0
-2 -9 0
-2 -10 0
-2 -11 0
-2 -12 0
-2 -13 0
-2 -14 0
-3 -4 0
-3 -5 0
-3 -6 0
-3 -7 0
-3 -8 0
-3 -9 0
-3 -10 0
-3 -11 0
-3 -12 0
-3 -13 0
-3 -14 0
-4 -5 0
-4 -6 0
-4 -7 0
-4 -8 0
-4 -9 0
-4 -10 0
-4 -11 0
-4 -12 0
-4 -13 0
-4 -14 0
-5 -6 0
-5 -7 0
-5 -8 0
-5 -9 0
-5 -10 0
-5 -11 0
-5 -12 0
-5 -13 0
-5 -14 0
-6 -7 0
-6 -8 0
-6 -9 0
-6 -10 0
-6 -11 0
-6 -12 0
-6 -13 0
-6 -14 0
-7 -8 0
-7 -9 0
-7 -10 0
-7 -11 0
-7 -12 0
-7 -13 0
-7 -14 0
-8 -9 0
-8 -10 0
-8 -11 0
-8 -12 0
-8 -13 0
-8 -14 0
-9 -10 0
-9 -11 0
-9 -12 0
-9 -13 0
-9 -14 0
-10 -11 0
-10 -12 0
-10 -13 0
-10 -14 0
-11 -12 0
-11 -13 0
-11 -14 0
-12 -13 0
-12 -14 0
-13 -14 0
2371 2372 2373 2374 2375 2376 2377 2378 2379 2380 2381 2382 2383 2384 2385 2386 2387 0
-2371 -2372 0
-2371 -2373 0
-2371 -2374 0
-2371 -2375 0
-2371 -2376 0
-2371 -2377 0
-2371 -2378 0
-2371 -2379 0
-2371 -2380 0
-2371 -2381 0
-2371 -2382 0
-2371 -2383 0
-2371 -2384 0
-2371 -2385 0
-2371 -2386 0
-2371 -2387 0
-2372 -2373 0
-2372 -2374 0
-2372 -2375 0
-2372 -2376 0
-2372 -2377 0
-2372 -2378 0
-2372 -2379 0
-2372 -2380 0
-2372 -2381 0
-2372 -2382 0
-2372 -2383 0
-2372 -2384 0
-2372 -2385 0
-2372 -2386 0
-2372 -2387 0
-2373 -2374 0
-2373 -2375 0
-2373 -2376 0
-2373 -2377 0
-2373 -2378 0
-2373 -2379 0
-2373 -2380 0
-2373 -2381 0
-2373 -2382 0
-2373 -2383 0
-2373 -2384 0
-2373 -2385 0
-2373 -2386 0
-2373 -2387 0
-2374 -2375 0
-2374 -2376 0
-2374 -2377 0
-2374 -2378 0
-2374 -2379 0
-2374 -2380 0
-2374 -2381 0
-2374 -2382 0
-2374 -2383 0
-2374 -2384 0
-2374 -2385 0
-2374 -2386 0
-2374 -2387 0
-2375 -2376 0
-2375 -2377 0
-2375 -2378 0
-2375 -2379 0
-2375 -2380 0
-2375 -2381 0
-2375 -2382 0
-2375 -2383 0
-2375 -2384 0
-2375 -2385 0
-2375 -2386 0
-2375 -2387 0
-2376 -2377 0
-2376 -2378 0
-2376 -2379 0
-2376 -2380 0
-2376 -2381 0
-2376 -2382 0
-2376 -2383 0
-2376 -2384 0
-2376 -2385 0
-2376 -2386 0
-2376 -2387 0
-2377 -2378 0
-2377 -2379 0
-2377 -2380 0
-2377 -2381 0
-2377 -2382 0
-2377 -2383 0
-2377 -2384 0
-2377 -2385 0
-2377 -2386 0
-2377 -2387 0
-2378 -2379 0
-2378 -2380 0
-2378 -2381 0
-2378 -2382 0
-2378 -2383 0
-2378 -2384 0
-2378 -2385 0
-2378 -2386 0
-2378 -2387 0
-2379 -2380 0
-2379 -2381 0
-2379 -2382 0
-2379 -2383 0
-2379 -2384 0
-2379 -2385 0
-2379 -2386 0
-2379 -2387 0
-2380 -2381 0
-2380 -2382 0
-2380 -2383 0
-2380 -2384 0
-2380 -2385 0
-2380 -2386 0
-2380 -2387 0
-2381 -2382 0
-2381 -2383 0
-2381 -2384 0
-2381 -2385 0
-2381 -2386 0
-2381 -2387 0
-2382 -2383 0
-2382 -2384 0
-2382 -2385 0
-2382 -2386 0
-2382 -2387 0
-2383 -2384 0
-2383 -2385 0
-2383 -2386 0
-2383 -2387 0
-2384 -2385 0
-2384 -2386 0
-2384 -2387 0
-2385 -2386 0
-2385 -2387 0
-2386 -2387 0
